c
c Renamed file of ldd.cnf 
c Variables are renamed according to left2right.ord 
c
c Date: Thu Apr 29 14:49:50 PDT 2004 by (jinbo)
c Host: Linux solution 2.4.18-4smp #1 SMP Thu May 2 18:32:34 EDT 2002 i686 unknown
c
c Copyright (c) 2001 Fadi A. Aloul.
c
p cnf 145 414
57 -59 0
59 -57 0
-59 72 0
32 -35 0
35 -32 0
-35 72 0
136 -134 0
134 -136 0
-134 72 0
21 -24 0
24 -21 0
-24 72 0
74 -73 0
73 -74 0
-73 72 0
96 -95 0
95 -96 0
-95 72 0
66 -68 0
68 -66 0
-68 72 0
82 -81 0
81 -82 0
-81 72 0
39 -40 0
40 -39 0
-40 72 0
105 -106 0
106 -105 0
-106 72 0
100 -97 0
97 -100 0
-97 72 0
-72 59 35 134 24 73 95 68 81 40 106 97 0
49 -51 0
51 -49 0
-51 77 0
9 -13 0
13 -9 0
-13 77 0
136 -135 0
135 -136 0
-135 77 0
91 -90 0
90 -91 0
-90 77 0
21 -22 0
22 -21 0
-22 77 0
87 -86 0
86 -87 0
-86 77 0
74 -75 0
75 -74 0
-75 77 0
66 -67 0
67 -66 0
-67 77 0
39 -41 0
41 -39 0
-41 77 0
105 -104 0
104 -105 0
-104 77 0
100 -98 0
98 -100 0
-98 77 0
-77 51 13 135 90 22 86 75 67 41 104 98 0
57 -60 0
60 -57 0
-60 84 0
49 -52 0
52 -49 0
-52 84 0
139 -140 0
140 -139 0
-140 84 0
142 -141 0
141 -142 0
-141 84 0
136 -137 0
137 -136 0
-137 84 0
21 -25 0
25 -21 0
-25 84 0
87 -85 0
85 -87 0
-85 84 0
74 -78 0
78 -74 0
-78 84 0
66 -69 0
69 -66 0
-69 84 0
82 -83 0
83 -82 0
-83 84 0
100 -99 0
99 -100 0
-99 84 0
-84 60 52 140 141 137 25 85 78 69 83 99 0
91 -89 0
89 -91 0
-89 79 0
21 -23 0
23 -21 0
-23 79 0
87 -88 0
88 -87 0
-88 79 0
74 -76 0
76 -74 0
-76 79 0
82 -80 0
80 -82 0
-80 79 0
39 -42 0
42 -39 0
-42 79 0
-79 89 23 88 76 80 42 0
96 -94 0
94 -96 0
-94 93 0
66 -92 0
92 -66 0
-92 93 0
-93 94 92 0
105 -103 0
103 -105 0
-103 102 0
100 -101 0
101 -100 0
-101 102 0
-102 103 101 0
142 -144 0
144 -142 0
-144 145 0
136 -143 0
143 -136 0
-143 145 0
-145 144 143 0
57 -55 0
55 -57 0
-55 53 0
32 -34 0
34 -32 0
-34 53 0
49 -50 0
50 -49 0
-50 53 0
9 -12 0
12 -9 0
-12 53 0
139 -138 0
138 -139 0
-138 53 0
-123 -113 0
-122 -113 0
-121 -113 0
-114 -113 0
-111 -113 0
-109 -113 0
-108 -113 0
-130 -113 0
113 123 122 121 114 111 109 108 130 0
-113 53 0
-53 55 34 50 12 138 113 0
-123 -116 0
122 -116 0
-121 -116 0
125 -116 0
116 123 -122 121 -125 0
-116 21 0
-21 116 0
-123 -117 0
122 -117 0
121 -117 0
125 -117 0
117 123 -122 -121 -125 0
-117 74 0
-74 117 0
123 -119 0
-122 -119 0
-121 -119 0
125 -119 0
119 -123 122 121 -125 0
-119 66 0
-66 119 0
123 -118 0
-122 -118 0
121 -118 0
125 -118 0
118 -123 122 -121 -125 0
-118 39 0
-39 118 0
57 -58 0
58 -57 0
-58 45 0
32 -33 0
33 -32 0
-33 45 0
49 -48 0
48 -49 0
-48 45 0
9 -11 0
11 -9 0
-11 45 0
21 -19 0
19 -21 0
-19 45 0
74 -71 0
71 -74 0
-71 45 0
66 -65 0
65 -66 0
-65 45 0
82 -70 0
70 -82 0
-70 45 0
39 -43 0
43 -39 0
-43 45 0
-45 58 33 48 11 19 71 65 70 43 0
57 -54 0
54 -57 0
-54 44 0
32 -31 0
31 -32 0
-31 44 0
49 -47 0
47 -49 0
-47 44 0
9 -8 0
8 -9 0
-8 44 0
21 -20 0
20 -21 0
-20 44 0
74 -63 0
63 -74 0
-63 44 0
66 -64 0
64 -66 0
-64 44 0
39 -38 0
38 -39 0
-38 44 0
-44 54 31 47 8 20 63 64 38 0
57 -56 0
56 -57 0
-56 36 0
32 -30 0
30 -32 0
-30 36 0
49 -46 0
46 -49 0
-46 36 0
9 -10 0
10 -9 0
-10 36 0
21 -18 0
18 -21 0
-18 36 0
74 -62 0
62 -74 0
-62 36 0
66 -61 0
61 -66 0
-61 36 0
39 -37 0
37 -39 0
-37 36 0
-36 56 30 46 10 18 62 61 37 0
32 -5 0
5 -32 0
-5 2 0
9 -3 0
3 -9 0
-3 2 0
21 -4 0
4 -21 0
-4 2 0
66 -1 0
1 -66 0
-1 2 0
-2 5 3 4 1 0
57 -17 0
17 -57 0
-17 14 0
9 -7 0
7 -9 0
-7 14 0
21 -16 0
16 -21 0
-16 14 0
39 -15 0
15 -39 0
-15 14 0
-14 17 7 16 15 0
32 -28 0
28 -32 0
-28 26 0
49 -27 0
27 -49 0
-27 26 0
9 -6 0
6 -9 0
-6 26 0
39 -29 0
29 -39 0
-29 26 0
-26 28 27 6 29 0
-123 -131 0
-122 -131 0
-121 -131 0
114 -131 0
131 123 122 121 -114 0
-131 139 0
-139 131 0
123 -120 0
-122 -120 0
-121 -120 0
-125 -120 0
120 -123 122 121 125 0
-120 96 0
-96 120 0
-123 -112 0
-122 -112 0
-121 -112 0
-114 -112 0
-111 -112 0
-109 -112 0
-108 -112 0
130 -112 0
112 123 122 121 114 111 109 108 -130 0
-112 57 0
-57 112 0
-123 -107 0
-122 -107 0
-121 -107 0
-114 -107 0
-111 -107 0
-109 -107 0
108 -107 0
107 123 122 121 114 111 109 -108 0
-107 32 0
-32 107 0
-123 -110 0
-122 -110 0
-121 -110 0
-114 -110 0
-111 -110 0
109 -110 0
110 123 122 121 114 111 -109 0
-110 49 0
-49 110 0
-123 -115 0
-122 -115 0
-121 -115 0
-114 -115 0
111 -115 0
115 123 122 121 114 -111 0
-115 9 0
-9 115 0
-123 -133 0
-122 -133 0
121 -133 0
-125 -133 0
133 123 122 -121 125 0
-133 142 0
-142 133 0
-123 -132 0
-122 -132 0
121 -132 0
125 -132 0
132 123 122 -121 -125 0
-132 136 0
-136 132 0
123 -128 0
122 -128 0
-121 -128 0
-125 -128 0
128 -123 -122 121 125 0
-128 105 0
-105 128 0
123 -126 0
122 -126 0
-121 -126 0
125 -126 0
126 -123 -122 121 -125 0
-126 100 0
-100 126 0
-123 -127 0
122 -127 0
-121 -127 0
-125 -127 0
127 123 -122 121 125 0
-127 91 0
-91 127 0
-123 -124 0
122 -124 0
121 -124 0
-125 -124 0
124 123 -122 -121 125 0
-124 87 0
-87 124 0
123 -129 0
-122 -129 0
121 -129 0
-125 -129 0
129 -123 122 -121 125 0
-129 82 0
-82 129 0
